100
1000
394
387
387
387
386
385
383
383
379
379
379
379
378
377
377
376
375
375
374
374
373
372
367
366
364
364
360
357
356
355
355
353
352
352
352
349
348
347
344
344
343
342
341
338
335
334
331
331
331
330
328
327
326
325
325
325
325
325
325
324
324
323
323
322
321
318
315
315
310
309
307
305
305
305
303
303
303
297
293
291
291
291
291
290
289
289
287
282
282
281
280
280
277
276
275
274
273
273
271
268
